logs/miss/feas/miss-05-15-1.lp
\ LP format - for model browsing. Use MPS format to capture full model detail.
Minimize
  p0 + p1 + p2 + p3 + p4
Subject To
 R0: x0,1_3 + x0,2_3 + x0,3_3 + x0,4_3 + x1,2_3 + x1,3_3 + x1,4_3 + x2,3_3
   + x2,4_3 + x3,4_3 = 1
 R1: x0,1_4 + x0,2_4 + x0,3_4 + x0,4_4 + x1,2_4 + x1,3_4 + x1,4_4 + x2,3_4
   + x2,4_4 + x3,4_4 = 1
 R2: x0,1_7 + x0,2_7 + x0,3_7 + x0,4_7 + x1,2_7 + x1,3_7 + x1,4_7 + x2,3_7
   + x2,4_7 + x3,4_7 = 1
 R3: x0,1_15 + x0,2_15 + x0,3_15 + x0,4_15 + x1,2_15 + x1,3_15 + x1,4_15
   + x2,3_15 + x2,4_15 + x3,4_15 = 1
 R4: x0,1_19 + x0,2_19 + x0,3_19 + x0,4_19 + x1,2_19 + x1,3_19 + x1,4_19
   + x2,3_19 + x2,4_19 + x3,4_19 = 1
 R5: x0,1_3 + x0,1_4 + x0,1_7 + x0,1_15 + x0,1_19 <= 1
 R6: x0,2_3 + x0,2_4 + x0,2_7 + x0,2_15 + x0,2_19 <= 1
 R7: x0,3_3 + x0,3_4 + x0,3_7 + x0,3_15 + x0,3_19 <= 1
 R8: x0,4_3 + x0,4_4 + x0,4_7 + x0,4_15 + x0,4_19 <= 1
 R9: x1,2_3 + x1,2_4 + x1,2_7 + x1,2_15 + x1,2_19 <= 1
 R10: x1,3_3 + x1,3_4 + x1,3_7 + x1,3_15 + x1,3_19 <= 1
 R11: x1,4_3 + x1,4_4 + x1,4_7 + x1,4_15 + x1,4_19 <= 1
 R12: x2,3_3 + x2,3_4 + x2,3_7 + x2,3_15 + x2,3_19 <= 1
 R13: x2,4_3 + x2,4_4 + x2,4_7 + x2,4_15 + x2,4_19 <= 1
 R14: x3,4_3 + x3,4_4 + x3,4_7 + x3,4_15 + x3,4_19 <= 1
 R15: p0 - p1 <= -1
 R16: - 3 x0,1_3 - p0 + p1 >= 0
 R17: 48 x0,1_3 - p0 + p1 <= 51
 R18: - 4 x0,1_4 - p0 + p1 >= 0
 R19: 48 x0,1_4 - p0 + p1 <= 52
 R20: - 7 x0,1_7 - p0 + p1 >= 0
 R21: 48 x0,1_7 - p0 + p1 <= 55
 R22: - 15 x0,1_15 - p0 + p1 >= 0
 R23: 48 x0,1_15 - p0 + p1 <= 63
 R24: - 19 x0,1_19 - p0 + p1 >= 0
 R25: 48 x0,1_19 - p0 + p1 <= 67
 R26: p0 - p2 <= -1
 R27: - 3 x0,2_3 - p0 + p2 >= 0
 R28: 48 x0,2_3 - p0 + p2 <= 51
 R29: - 4 x0,2_4 - p0 + p2 >= 0
 R30: 48 x0,2_4 - p0 + p2 <= 52
 R31: - 7 x0,2_7 - p0 + p2 >= 0
 R32: 48 x0,2_7 - p0 + p2 <= 55
 R33: - 15 x0,2_15 - p0 + p2 >= 0
 R34: 48 x0,2_15 - p0 + p2 <= 63
 R35: - 19 x0,2_19 - p0 + p2 >= 0
 R36: 48 x0,2_19 - p0 + p2 <= 67
 R37: p0 - p3 <= -1
 R38: - 3 x0,3_3 - p0 + p3 >= 0
 R39: 48 x0,3_3 - p0 + p3 <= 51
 R40: - 4 x0,3_4 - p0 + p3 >= 0
 R41: 48 x0,3_4 - p0 + p3 <= 52
 R42: - 7 x0,3_7 - p0 + p3 >= 0
 R43: 48 x0,3_7 - p0 + p3 <= 55
 R44: - 15 x0,3_15 - p0 + p3 >= 0
 R45: 48 x0,3_15 - p0 + p3 <= 63
 R46: - 19 x0,3_19 - p0 + p3 >= 0
 R47: 48 x0,3_19 - p0 + p3 <= 67
 R48: p0 - p4 <= -1
 R49: - 3 x0,4_3 - p0 + p4 >= 0
 R50: 48 x0,4_3 - p0 + p4 <= 51
 R51: - 4 x0,4_4 - p0 + p4 >= 0
 R52: 48 x0,4_4 - p0 + p4 <= 52
 R53: - 7 x0,4_7 - p0 + p4 >= 0
 R54: 48 x0,4_7 - p0 + p4 <= 55
 R55: - 15 x0,4_15 - p0 + p4 >= 0
 R56: 48 x0,4_15 - p0 + p4 <= 63
 R57: - 19 x0,4_19 - p0 + p4 >= 0
 R58: 48 x0,4_19 - p0 + p4 <= 67
 R59: p1 - p2 <= -1
 R60: - 3 x1,2_3 - p1 + p2 >= 0
 R61: 48 x1,2_3 - p1 + p2 <= 51
 R62: - 4 x1,2_4 - p1 + p2 >= 0
 R63: 48 x1,2_4 - p1 + p2 <= 52
 R64: - 7 x1,2_7 - p1 + p2 >= 0
 R65: 48 x1,2_7 - p1 + p2 <= 55
 R66: - 15 x1,2_15 - p1 + p2 >= 0
 R67: 48 x1,2_15 - p1 + p2 <= 63
 R68: - 19 x1,2_19 - p1 + p2 >= 0
 R69: 48 x1,2_19 - p1 + p2 <= 67
 R70: p1 - p3 <= -1
 R71: - 3 x1,3_3 - p1 + p3 >= 0
 R72: 48 x1,3_3 - p1 + p3 <= 51
 R73: - 4 x1,3_4 - p1 + p3 >= 0
 R74: 48 x1,3_4 - p1 + p3 <= 52
 R75: - 7 x1,3_7 - p1 + p3 >= 0
 R76: 48 x1,3_7 - p1 + p3 <= 55
 R77: - 15 x1,3_15 - p1 + p3 >= 0
 R78: 48 x1,3_15 - p1 + p3 <= 63
 R79: - 19 x1,3_19 - p1 + p3 >= 0
 R80: 48 x1,3_19 - p1 + p3 <= 67
 R81: p1 - p4 <= -1
 R82: - 3 x1,4_3 - p1 + p4 >= 0
 R83: 48 x1,4_3 - p1 + p4 <= 51
 R84: - 4 x1,4_4 - p1 + p4 >= 0
 R85: 48 x1,4_4 - p1 + p4 <= 52
 R86: - 7 x1,4_7 - p1 + p4 >= 0
 R87: 48 x1,4_7 - p1 + p4 <= 55
 R88: - 15 x1,4_15 - p1 + p4 >= 0
 R89: 48 x1,4_15 - p1 + p4 <= 63
 R90: - 19 x1,4_19 - p1 + p4 >= 0
 R91: 48 x1,4_19 - p1 + p4 <= 67
 R92: p2 - p3 <= -1
 R93: - 3 x2,3_3 - p2 + p3 >= 0
 R94: 48 x2,3_3 - p2 + p3 <= 51
 R95: - 4 x2,3_4 - p2 + p3 >= 0
 R96: 48 x2,3_4 - p2 + p3 <= 52
 R97: - 7 x2,3_7 - p2 + p3 >= 0
 R98: 48 x2,3_7 - p2 + p3 <= 55
 R99: - 15 x2,3_15 - p2 + p3 >= 0
 R100: 48 x2,3_15 - p2 + p3 <= 63
 R101: - 19 x2,3_19 - p2 + p3 >= 0
 R102: 48 x2,3_19 - p2 + p3 <= 67
 R103: p2 - p4 <= -1
 R104: - 3 x2,4_3 - p2 + p4 >= 0
 R105: 48 x2,4_3 - p2 + p4 <= 51
 R106: - 4 x2,4_4 - p2 + p4 >= 0
 R107: 48 x2,4_4 - p2 + p4 <= 52
 R108: - 7 x2,4_7 - p2 + p4 >= 0
 R109: 48 x2,4_7 - p2 + p4 <= 55
 R110: - 15 x2,4_15 - p2 + p4 >= 0
 R111: 48 x2,4_15 - p2 + p4 <= 63
 R112: - 19 x2,4_19 - p2 + p4 >= 0
 R113: 48 x2,4_19 - p2 + p4 <= 67
 R114: p3 - p4 <= -1
 R115: - 3 x3,4_3 - p3 + p4 >= 0
 R116: 48 x3,4_3 - p3 + p4 <= 51
 R117: - 4 x3,4_4 - p3 + p4 >= 0
 R118: 48 x3,4_4 - p3 + p4 <= 52
 R119: - 7 x3,4_7 - p3 + p4 >= 0
 R120: 48 x3,4_7 - p3 + p4 <= 55
 R121: - 15 x3,4_15 - p3 + p4 >= 0
 R122: 48 x3,4_15 - p3 + p4 <= 63
 R123: - 19 x3,4_19 - p3 + p4 >= 0
 R124: 48 x3,4_19 - p3 + p4 <= 67
Bounds
Binaries
 x0,1_3 x0,1_4 x0,1_7 x0,1_15 x0,1_19 x0,2_3 x0,2_4 x0,2_7 x0,2_15 x0,2_19
 x0,3_3 x0,3_4 x0,3_7 x0,3_15 x0,3_19 x0,4_3 x0,4_4 x0,4_7 x0,4_15 x0,4_19
 x1,2_3 x1,2_4 x1,2_7 x1,2_15 x1,2_19 x1,3_3 x1,3_4 x1,3_7 x1,3_15 x1,3_19
 x1,4_3 x1,4_4 x1,4_7 x1,4_15 x1,4_19 x2,3_3 x2,3_4 x2,3_7 x2,3_15 x2,3_19
 x2,4_3 x2,4_4 x2,4_7 x2,4_15 x2,4_19 x3,4_3 x3,4_4 x3,4_7 x3,4_15 x3,4_19
Generals
 p0 p1 p2 p3 p4
End
