logs/miss/feas/miss-05-15-1.log

Gurobi 8.1.1 (win64) logging started 11/24/19 10:01:17

Changed value of parameter LogFile to logs/miss/feas/miss-05-15-1.log
   Prev: gurobi.log  Default: 
Changed value of parameter LogToConsole to 0
   Prev: 1  Min: 0  Max: 1  Default: 1
Changed value of parameter TimeLimit to 3600.0
   Prev: 1e+100  Min: 0.0  Max: 1e+100  Default: 1e+100
Optimize a model with 185 rows, 81 columns and 630 nonzeros
Variable types: 0 continuous, 81 integer (75 binary)
Coefficient statistics:
  Matrix range     [1e+00, 5e+01]
  Objective range  [1e+00, 1e+00]
  Bounds range     [1e+00, 1e+00]
  RHS range        [1e+00, 7e+01]
Found heuristic solution: objective 49.0000000
Presolve removed 24 rows and 17 columns
Presolve time: 0.00s
Presolved: 161 rows, 64 columns, 514 nonzeros
Variable types: 0 continuous, 64 integer (58 binary)

Root relaxation: objective 1.500000e+01, 27 iterations, 0.00 seconds

    Nodes    |    Current Node    |     Objective Bounds      |     Work
 Expl Unexpl |  Obj  Depth IntInf | Incumbent    BestBd   Gap | It/Node Time

     0     0   15.00000    0   16   49.00000   15.00000  69.4%     -    0s
H    0     0                      41.0000000   15.00000  63.4%     -    0s
     0     0   18.17486    0   12   41.00000   18.17486  55.7%     -    0s
H    0     0                      36.0000000   18.17486  49.5%     -    0s
     0     0   21.13207    0   11   36.00000   21.13207  41.3%     -    0s
     0     0   21.71676    0   11   36.00000   21.71676  39.7%     -    0s
     0     0   25.00000    0    5   36.00000   25.00000  30.6%     -    0s
     0     0   25.29352    0   12   36.00000   25.29352  29.7%     -    0s
H    0     0                      34.0000000   25.29352  25.6%     -    0s
     0     0   25.29530    0   12   34.00000   25.29530  25.6%     -    0s
     0     0   25.53762    0   13   34.00000   25.53762  24.9%     -    0s
H    0     0                      33.0000000   25.53762  22.6%     -    0s
     0     0   25.53806    0   13   33.00000   25.53806  22.6%     -    0s
     0     0   26.64796    0   14   33.00000   26.64796  19.2%     -    0s

Explored 1 nodes (169 simplex iterations) in 0.03 seconds
Thread count was 4 (of 4 available processors)

Solution count 5: 33 34 36 ... 49

Optimal solution found (tolerance 1.00e-04)
Best objective 3.300000000000e+01, best bound 3.300000000000e+01, gap 0.0000%

Gurobi 8.1.1 (win64) logging started 11/24/19 10:01:17

Changed value of parameter LogFile to logs/miss/feas/miss-05-15-1.log
   Prev: gurobi.log  Default: 
Changed value of parameter LogToConsole to 0
   Prev: 1  Min: 0  Max: 1  Default: 1
Changed value of parameter TimeLimit to 3600.0
   Prev: 1e+100  Min: 0.0  Max: 1e+100  Default: 1e+100
Optimize a model with 125 rows, 55 columns and 420 nonzeros
Variable types: 0 continuous, 55 integer (50 binary)
Coefficient statistics:
  Matrix range     [1e+00, 5e+01]
  Objective range  [1e+00, 1e+00]
  Bounds range     [1e+00, 1e+00]
  RHS range        [1e+00, 7e+01]
Presolve time: 0.00s
Presolved: 125 rows, 55 columns, 420 nonzeros
Variable types: 0 continuous, 55 integer (50 binary)

Root relaxation: objective 1.000000e+01, 32 iterations, 0.00 seconds

    Nodes    |    Current Node    |     Objective Bounds      |     Work
 Expl Unexpl |  Obj  Depth IntInf | Incumbent    BestBd   Gap | It/Node Time

     0     0   10.00000    0   27          -   10.00000      -     -    0s
H    0     0                      63.0000000   10.00000  84.1%     -    0s
H    0     0                      58.0000000   10.00000  82.8%     -    0s
     0     0   14.05991    0   23   58.00000   14.05991  75.8%     -    0s
H    0     0                      33.0000000   14.05991  57.4%     -    0s
H    0     0                      32.0000000   14.05991  56.1%     -    0s
     0     0   15.31943    0   13   32.00000   15.31943  52.1%     -    0s
     0     0   15.31943    0   13   32.00000   15.31943  52.1%     -    0s
     0     0   20.63885    0   12   32.00000   20.63885  35.5%     -    0s
     0     0   25.19133    0   17   32.00000   25.19133  21.3%     -    0s
     0     0   26.12500    0   11   32.00000   26.12500  18.4%     -    0s
H    0     0                      31.0000000   26.12500  15.7%     -    0s
     0     0     cutoff    0        31.00000   31.00000  0.00%     -    0s

Cutting planes:
  Gomory: 2
  Cover: 2
  Implied bound: 1
  MIR: 7
  Zero half: 1

Explored 1 nodes (192 simplex iterations) in 0.03 seconds
Thread count was 4 (of 4 available processors)

Solution count 5: 31 32 33 ... 63

Optimal solution found (tolerance 1.00e-04)
Best objective 3.100000000000e+01, best bound 3.100000000000e+01, gap 0.0000%
